set C := 1 2 3 4 5 6 7 8 9 10;

param q :=
    1 37.05
    2 36.65
    3 34.69
    4 24.79
    5 20.71
    6 23.46
    7 39.15
    8 31.23
    9 20.52
    10 41.10;
param ca :=
    1 241.05
    2 224.02
    3 174.09
    4 224.24
    5 228.91
    6 184.86
    7 171.95
    8 200.91
    9 236.34
    10 175.96;
param cc :=
    1 39.38
    2 37.53
    3 38.90
    4 40.02
    5 36.91
    6 40.52
    7 38.38
    8 30.80
    9 35.38
    10 45.28;
param cp :=
    1 6.05
    2 11.85
    3 8.74
    4 5.93
    5 11.95
    6 8.43
    7 6.18
    8 7.28
    9 9.69
    10 7.08;
param sMin := 0;
param sMax := 80;

namespace t0
{
    set A := 1;
    set AAnt := 2;
    set P := 3 4 5 6 7 8 9 10;
    set S := 1;

    param p :=
        1 1.0000000000;
    param d :=
        1 23.68;
    param h := 1;
    param s0 := 20;
}

namespace t1
{
    set AAnt := 1;
    set P := 3 4 5 6 7 8 9 10;
    set PAnt := 3 4 5 6 7 8 9 10;
    set S := 1 2 3;

    param p :=
        1 0.1824607501
        2 0.0889667839
        3 0.7285724659;
    param d :=
        1 30.78
        2 20.65
        3 24.24;
    param h := 1;
}

namespace t2
{
    set A2Ant := 1;
    set P := 3 4 5 6 7 8 9 10;
    set PAnt := 3 4 5 6 7 8 9 10;
    set S := 1 2 3;

    param p :=
        1 0.4368169822
        2 0.1245758187
        3 0.4386071991;
    param d :=
        1 13.62
        2 49.33
        3 32.24;
    param h := 1;
}

namespace t3
{
    set P := 3 4 5 6 7 8 9 10;
    set PAnt := 3 4 5 6 7 8 9 10;
    set S := 1 2 3;

    param p :=
        1 0.2709496238
        2 0.5886633101
        3 0.1403870661;
    param d :=
        1 12.44
        2 30.28
        3 38.02;
    param h := 1;
}

namespace t4
{
    set PAnt := 3 4 5 6 7 8 9 10;
    set S := 1 2 3;

    param p :=
        1 0.5774537177
        2 0.2460414953
        3 0.1765047870;
    param d :=
        1 17.39
        2 35.10
        3 27.07;
    param h := 1;
}
